BEGIN IONS
TITLE=agilent_combine_10
CHARGE=1+
PRECURSOR_TYPE=[M+H]+
PEPMASS=310.2165409427
MOLMASS=309.20926
MS_LEVEL=2
IONMODE=POSITIVE
SOURCE_INSTRUMENT=Unknown
INSTRUMENT_TYPE=ESI-QTOF
COLLISION_ENERGY=20
PEPTIDE=CCC(=O)C(C[C@@H](C)N(C)C)(c1ccccc1)c1ccccc1
INCHI_KEY=USSIQXCVUWKGNF-QGZVFWFLSA-N
57.033491 28.615817
77.038577 2.494685
91.054227 8.247696
105.033491 58.35478
117.069877 4.736797
129.069877 1.923204
135.080441 1.025953
143.085527 1.135815
159.116827 7.471491
187.111742 4.059457
195.116827 8.718227
204.093352 1.32756
205.101177 2.147337
207.116827 1.502382
218.109002 2.013956
219.116827 14.718245
223.111742 20.699074
247.148127 8.821435
265.158692 100.0
310.216541 2.72673
END IONS

BEGIN IONS
TITLE=agilent_combine_12
CHARGE=1+
PRECURSOR_TYPE=[M+H]+
PEPMASS=305.1019646959
MOLMASS=304.0946882442
MS_LEVEL=2
IONMODE=POSITIVE
SOURCE_INSTRUMENT=Unknown
INSTRUMENT_TYPE=ESI-QTOF
COLLISION_ENERGY=20
PEPTIDE=CC(C)(O)C(O)COc1c2occc2cc2ccc(=O)oc12
INCHI_KEY=FOINLJRVEBYARJ-UHFFFAOYSA-N
43.017841 1.50258195492254
57.069877 1.83677494489675
65.038577 1.95357394139278
67.054227 27.7763561667093
85.064791 16.3966965080991
89.038577 1.02689696919309
131.049141 1.45747795627566
147.044056 4.26348087209557
157.028406 3.78236588652902
159.044056 1.48212395553628
173.02332 8.71039473868816
175.038971 1.88674294339771
185.02332 2.82188491534345
199.038971 1.92470094225897
199.054227 2.34580792962576
201.018235 33.0936610071902
202.02606 2.20259493392215
203.033885 100.0
215.033885 1.67614694971559
227.070271 8.81406073557818
241.085921 3.03296190901114
243.065185 2.2845499314635
269.080835 12.9735956107921
END IONS

BEGIN IONS
TITLE=agilent_combine_23
CHARGE=1+
PRECURSOR_TYPE=[M+H]+
PEPMASS=837.5318462254
MOLMASS=836.52457
MS_LEVEL=2
IONMODE=POSITIVE
SOURCE_INSTRUMENT=Unknown
INSTRUMENT_TYPE=ESI-QTOF
COLLISION_ENERGY=20
PEPTIDE=CC[C@H]1OC(=O)[C@H](C)[C@@H](O[C@H]2C[C@@](C)(OC)[C@@H](O)[C@H](C)O2)[C@H](C)[C@@H](O[C@@H]2O[C@H](C)C[C@H](N(C)C)[C@H]2O)[C@](C)(O)C[C@@H](C)/C(=N/OCOCCOC)[C@H](C)[C@@H](O)[C@]1(C)O
INCHI_KEY=RXZBMPWDPOLZGW-HEWSMUCTSA-N
83.049141 2.370565
116.10699 7.592559
158.117555 37.219875
159.116827 1.128228
316.211849 1.123407
522.329953 5.468508
540.353094 2.168891
558.360979 6.646861
603.382442 1.614435
661.424307 2.110506
679.437552 100.0
680.439504 12.44882
716.457953 1.294344
837.531846 28.757992
END IONS

BEGIN IONS
TITLE=agilent_combine_30
CHARGE=1+
PRECURSOR_TYPE=[M+H]+
PEPMASS=248.1645053736
MOLMASS=247.15723
MS_LEVEL=2
IONMODE=POSITIVE
SOURCE_INSTRUMENT=Unknown
INSTRUMENT_TYPE=ESI-QTOF
COLLISION_ENERGY=20
PEPTIDE=CCC(C(=O)c1ccc(OC)cc1)N1CCCC1
INCHI_KEY=BXVBGQDJXXGMRX-UHFFFAOYSA-N
70.065126 3.74198081290096
72.080776 3.15844084207796
77.038577 1.52770292361485
84.080776 7.22586963870652
91.054227 1.5282179235891
112.112076 93.0561053471947
121.064791 47.6221756188912
135.044056 30.9851224507439
140.10699 3.67782181610891
149.096091 87.1361276431936
177.091006 100.0
219.12538 5.74259071287046
248.164505 51.797699410115
END IONS

BEGIN IONS
TITLE=agilent_combine_35
CHARGE=1+
PRECURSOR_TYPE=[M+H]+
PEPMASS=224.1281198683
MOLMASS=223.12084
MS_LEVEL=2
IONMODE=POSITIVE
SOURCE_INSTRUMENT=Unknown
INSTRUMENT_TYPE=ESI-QTOF
COLLISION_ENERGY=20
PEPTIDE=CCN(CC)C(=O)c1ccc(O)c(OC)c1
INCHI_KEY=BQJODPIMMWWMFC-UHFFFAOYSA-N
59.049141 4.295728
72.04439 15.534246
73.064791 18.582959
74.096426 4.672398
77.038577 1.240279
100.07569 9.692524
108.020581 1.010308
123.044056 9.275649
151.038971 100.0
224.12812 4.520565
END IONS

