BEGIN IONS
TITLE=agilent_combine_16
CHARGE=1+
PRECURSOR_TYPE=[M-H]-
PEPMASS=515.3378128133
MOLMASS=516.34509
MS_LEVEL=2
IONMODE=NEGATIVE
SOURCE_INSTRUMENT=Unknown
INSTRUMENT_TYPE=ESI-QTOF
COLLISION_ENERGY=20
PEPTIDE=CC(=O)O[C@H]1C[C@@]2(C)[C@@H](C[C@@H](O)[C@H]3[C@@]4(C)CC[C@@H](O)[C@@H](C)[C@@H]4CC[C@@]32C)/C1=C(\CCC=C(C)C)C(=O)O
INCHI_KEY=IECPWNUMDGFDKC-MZJAQBGESA-N
59.013853 27.973823
109.065888 4.393734
139.112839 1.107313
189.164874 6.957947
193.159789 1.489986
204.115578 1.059549
219.139053 4.73762
221.154703 50.653698
223.170354 1.484354
299.238039 2.819069
313.217304 2.395669
371.259169 1.750884
377.284989 1.050398
383.295554 1.588717
388.261908 2.064477
389.269733 3.72531
391.300639 2.195144
392.293208 1.617614
393.31629 67.149188
394.324115 2.693079
409.311204 2.195845
411.326854 4.840366
437.306119 2.770118
453.337419 2.536234
454.308858 1.709729
455.316683 100.0
456.324508 2.782011
471.347984 30.606396
473.327248 39.482235
474.335073 1.725535
514.329988 1.622293
515.337813 95.712935
END IONS

BEGIN IONS
TITLE=agilent_combine_48
CHARGE=1+
PRECURSOR_TYPE=[M-H]-
PEPMASS=416.31702
MOLMASS=417.32429
MS_LEVEL=2
IONMODE=NEGATIVE
SOURCE_INSTRUMENT=Unknown
INSTRUMENT_TYPE=ESI-QTOF
COLLISION_ENERGY=20
PEPTIDE=CCCCCCC(C)(C)c1cc(O)cc(OCCCCCCCC(=O)NC2CC2)c1
INCHI_KEY=PVAOGZXUOOHSMN-UHFFFAOYSA-N
149.060803 1.32825
150.068628 9.06588
234.162529 3.300555
235.170354 20.72352
315.269339 1.256736
359.259169 100.0
360.266994 1.209658
416.317018 96.501254
END IONS

BEGIN IONS
TITLE=agilent_combine_52
CHARGE=1+
PRECURSOR_TYPE=[M-H]-
PEPMASS=444.1711
MOLMASS=445.17838
MS_LEVEL=2
IONMODE=NEGATIVE
SOURCE_INSTRUMENT=Unknown
INSTRUMENT_TYPE=ESI-QTOF
COLLISION_ENERGY=20
PEPTIDE=Cc1cnc(C(=O)NCCc2ccc(S(=O)(=O)NC(=O)NC3CCCCC3)cc2)cn1
INCHI_KEY=ZJJXGWJIGJFDTL-UHFFFAOYSA-N
64.970274 1.1676800467072
78.973348 6.48180725927229
170.02678 38.0597185223887
182.024752 1.17883404715336
196.006045 2.01119108044764
319.086344 100.0
444.171099 45.6418188256728
END IONS

BEGIN IONS
TITLE=agilent_combine_85
CHARGE=1+
PRECURSOR_TYPE=[M-H]-
PEPMASS=443.1459893071
MOLMASS=444.15327
MS_LEVEL=2
IONMODE=NEGATIVE
SOURCE_INSTRUMENT=Unknown
INSTRUMENT_TYPE=ESI-QTOF
COLLISION_ENERGY=20
PEPTIDE=CN(C)[C@@H]1C(O)=C(C(N)=O)C(=O)[C@@]2(O)C(O)=C3C(=O)c4c(O)cccc4[C@@](C)(O)[C@H]3C[C@@H]12
INCHI_KEY=OFVLGDICTFRJMM-WESIUVDSSA-N
41.998537 1.88239290588035
125.072037 1.94527290273635
135.045153 2.41284387935781
142.014581 7.61941961902902
154.038391 1.96465690176716
161.024418 6.84675065766247
161.060803 1.3633839318308
162.02822 1.23807293809635
163.003682 1.1137699443115
163.040068 1.7252959137352
169.061866 7.02643764867812
173.060803 1.51401892429905
180.030231 14.3143622842819
181.038056 1.0855639457218
187.076453 18.0709670964516
211.076453 2.49524987523751
229.089698 4.59819777009011
245.048227 1.23876293806185
255.068962 4.16238679188066
271.063877 1.5646779217661
273.079527 22.1127228943639
285.079527 1.45283692735815
293.084613 3.24951383752431
295.063877 2.56719187164041
311.095177 3.11701984414901
313.074442 3.82873080856346
314.142462 1.0741859462907
330.137376 2.03321089833946
336.124132 1.0004719499764
337.074442 6.67821266608937
338.148335 1.58824092058795
353.069356 3.20683583965821
354.134696 1.93208890339555
355.085006 10.8737384563131
356.080255 1.07674894616255
356.150346 4.53643077317846
358.132291 100.0
359.137436 2.56655787167211
364.119046 1.583639920818
381.061591 9.00918254954087
382.138164 5.33759673312016
398.08814 3.53729482313526
398.124526 1.23420893828955
399.15616 1.7550479122476
400.140176 28.4248985787551
425.135425 2.24490988775451
426.11944 18.2410350879482
443.145989 14.8162172591891
END IONS

BEGIN IONS
TITLE=agilent_combine_106
CHARGE=1+
PRECURSOR_TYPE=[M-H]-
PEPMASS=388.1778985636
MOLMASS=389.18518
MS_LEVEL=2
IONMODE=NEGATIVE
SOURCE_INSTRUMENT=Unknown
INSTRUMENT_TYPE=ESI-QTOF
COLLISION_ENERGY=20
PEPTIDE=C=CC(C)(C)[C@@]12C[C@H]3C(=O)N/C(=C\c4cnc[nH]4)C(=O)N3[C@@H]1Nc1ccccc12
INCHI_KEY=SPWSUFUPTSJWNG-LIMLNZRCSA-N
66.034923 1.3076100261522
107.048896 1.0404750208095
123.020001 3.6486950729739
189.041799 7.05279914105598
190.049624 100.0
191.057449 5.34599110691982
203.057449 2.88542705770854
318.099648 3.5698450713969
319.107473 1.12051202241024
388.177899 56.1603741232075
END IONS

